16 85 16 85 16 85 16 16 16 16 16 16 85 16 16 16 85 16 16 16 85 85 16 16 85 16 85 85 16 16 85 85 85 85 16 85 85 85 85 85 85 85 16 16 16 16 85 85 16 85 85 85 85 16 85 16 16 16 16 16 85 85 85 16 85 16 16 16 85 85 85 16 85 85 16 85 85 85 16 85 85 85 16 16 85 16 16 85 16 16 16 85 16 85 16 85 85 16 85 16 85 16 16 16 16 85 85 85 16 85 85 85 85 85 85 16 85 16 16 16 16 16 85 16 85 85 85 85 85 16 85 85 85 16 85 85 85 85 16 85 16 85 85 85 85 16 16 16 16 16 16 85 16 16 85 85 85 85 16 85 85 16 16 16 16 85 85 85 16 16 16 85 85 85 16 16 16 16 85 16 16 85 85 16 85 85 16 85 16 16 16 85 16 16 16 16 85 85 85 16 85 16 85 85 85 85 85 85 16 16 16 16 16 85 85 85 16 85 16 16 85 16 16 16 16 16 16 16 85 16 16 85 16 85 16 85 16 85 85 16 16 85 85 16 16 16 85 85 85 16 85 16 16 85 16 85 85 85 85 85 85 85 16 85 16 16 16 16 85 85 85 85 16 16 85 85 16 85 16 85 85 85 85 85 85 16 16 16 85 85 85 16 16 85 85 16 85 85 85 85 85 16 16 85 16 16 16 16 85 16 85 16 16 16 85 85 16 16 85 85 85 85 85 16 16 16 16 16 16 85 85 85 85 85 16 85 85 85 85 16 85 16 16 85 85 16 16 85 16 16 85 85 85 16 85 85 85 16 85 85 85 16 16 85 16 16 16 85 85 16 16 85 16 16 16 85 16 85 85 16 85 16 16 16 16 85 85 85 85 85 16 85 85 16 16 85 85 16 85 16 16 85 85 85 85 16 16 16 85 85 16 16 85 16 16 16 16 85 85 85 16 16 16 16 16 16 85 85 85 16 16 85 85 85 16 85 85 85 85 16 16 85 16 16 16 16 16 16 16 85 85 16 85 16 16 16 16 16 85 85 16 85 85 16 85 85 85 16 16 16 85 85 85 85 85 85 16 85 85 16 16 85 16 16 85 85 16 85 85 85 85 85 85 16 85 16 85 16 16 16 16 85 85 16 85 16 85 85 85 85 85 85 16 85 85 85 16 85 16 85 85 85 85 16 85 16 16 85 85 16 85 85 16 16 85 85 16 85 16 85 16 85 16 16 16 16 85 85 85 85 16 16 85 85 16 16 16 16 85 85 85 16 16 85 16 16 16 16 85 16 85 85 85 16 85 85 16 16 16 85 85 85 16 16 16 16 85 16 85 16 85 16 85 16 85 85 16 85 16 85 85 85 16 16 85 85 85 85 85 16 85 16 85 85 85 85 85 16 16 16 16 85 16 85 85 85 85 85 16 85 16 85 16 16 85 16 85 85 85 16 85 16 85 16 85 16 85 85 16 85 85 16 85 16 16 16 85 85 16 16 16 16 85 16 85 85 16 16 16 16 85 85 16 16 85 16 16 16 85 16 16 16 16 85 16 16 85 16 85 85 16 85 16 85 16 85 16 16 85 16 16 16 85 85 16 16 85 16 85 16 16 85 16 85 16 85 85 85 85 85 85 85 16 85 16 16 16 85 85 85 85 85 16 85 16 16 85 85 85 16 85 85 85 16 16 85 85 16 85 16 85 16 85 85 85 85 16 85 16 85 16 16 16 16 85 85 85 16 16 16 85 16 85 16 16 16 16 85 16 85 85 85 85 16 16 16 85 16 85 16 85 85 16 16 16 85 85 85 85 85 85 16 85 16 85 85 16 85 16 16 16 85 85 85 85 16 85 85 16 16 85 16 85 85 16 85 16 85 16 85 16 85 16 16 16 85 85 16 16 16 85 16 85 16 85 85 16 16 16 85 16 85 85 85 16 85 85 16 16 85 85 16 85 85 16 85 16 16 85 16 16 16 16 85 85 85 16 85 85 16 16 85 85 85 85 85 16 16 85 16 85 85 85 16 16 85 85 85 85 85 85 85 85 16 85 16 85 85 16 85 16 16 16 85 16 85 85 16 85 16 85 85 85 16 85 16 85 85 85 85 16 16 16 85 16 85 16 16 85 16 85 85 16 85 16 16 85 85 85 16 16 16 85 85 16 85 85 85 16 16 16 16 85 85 85 85 16 85 85 85 85 16 16 16 16 85 16 85 16 85 85 16 85 85 16 85 16 85 85 16 16 85 16 85 16 85 16 85 85 16 